robust/generate/spp_dkp_Lefebvre_et_al_2026/src/shortest_path_8_9.kp
51
204

[3.0 0.2 1.52 2.86 1.26 4.21 0.7 1.72 2.62 2.16 0.77 0.97 2.87 1.11 1.82 0.21 1.43 1.3 1.98 0.27 3.35 3.23 2.5 3.17 2.58 2.83 3.53 3.86 1.55 1.37 2.68 1.65 3.83 3.16 1.88 3.89 0.08 2.03 0.75 3.74 0.55 3.29 3.76 0.77 1.2 4.09]

[6 63 43 43 45 77 26 13 27 46 96 10 16 62 98 76 56 39 61 83 58 4 54 84 27 8 43 51 39 88 67 73 52 31 63 47 52 19 93 2 44 78 50 56 63 21]
