robust/generate/spp_dkp_Lefebvre_et_al_2026/src/shortest_path_8_9.lp
\ Model sp_8_9
\ LP format - for model browsing. Use MPS format to capture full model detail.
\ Signature: 0x19081ce87ffb351f
Minimize
  58.8 y[0,1] + 35 y[0,2] + 50.45 y[0,3] + 19.92 y[0,4] + 40.31 y[0,5]
   + 58.31 y[0,6] + 39.4 y[0,7] + 58.8 y[1,0] + 40.02 y[1,2] + 12 y[1,3]
   + 53.85 y[1,4] + 53.49 y[1,6] + 60.07 y[1,7] + 35 y[2,0] + 40.02 y[2,1]
   + 39.12 y[2,3] + 45.19 y[2,4] + 50.45 y[3,0] + 12 y[3,1] + 39.12 y[3,2]
   + 42.94 y[3,4] + 42.49 y[3,6] + 48.09 y[3,7] + 19.92 y[4,0]
   + 53.85 y[4,1] + 45.19 y[4,2] + 42.94 y[4,3] + 24.7 y[4,5] + 39 y[4,6]
   + 19.72 y[4,7] + 40.31 y[5,0] + 24.7 y[5,4] + 37.8 y[5,6] + 15.26 y[5,7]
   + 58.31 y[6,0] + 53.49 y[6,1] + 42.49 y[6,3] + 39 y[6,4] + 37.8 y[6,5]
   + 24.17 y[6,7] + 39.4 y[7,0] + 60.07 y[7,1] + 48.09 y[7,3]
   + 19.72 y[7,4] + 15.26 y[7,5] + 24.17 y[7,6] + 5.88 r[0,1] + 3.5 r[0,2]
   + 5.045 r[0,3] + 1.992 r[0,4] + 4.031 r[0,5] + 5.831 r[0,6]
   + 3.94 r[0,7] + 5.88 r[1,0] + 4.002 r[1,2] + 1.2 r[1,3] + 5.385 r[1,4]
   + 5.349 r[1,6] + 6.007 r[1,7] + 3.5 r[2,0] + 4.002 r[2,1] + 3.912 r[2,3]
   + 4.519 r[2,4] + 5.045 r[3,0] + 1.2 r[3,1] + 3.912 r[3,2] + 4.294 r[3,4]
   + 4.249 r[3,6] + 4.809 r[3,7] + 1.992 r[4,0] + 5.385 r[4,1]
   + 4.519 r[4,2] + 4.294 r[4,3] + 2.47 r[4,5] + 3.9 r[4,6] + 1.972 r[4,7]
   + 4.031 r[5,0] + 2.47 r[5,4] + 3.78 r[5,6] + 1.526 r[5,7] + 5.831 r[6,0]
   + 5.349 r[6,1] + 4.249 r[6,3] + 3.9 r[6,4] + 3.78 r[6,5] + 2.417 r[6,7]
   + 3.94 r[7,0] + 6.007 r[7,1] + 4.809 r[7,3] + 1.972 r[7,4]
   + 1.526 r[7,5] + 2.417 r[7,6]
Subject To
 flow_cons_inner_nodes[0]: - y[0,1] - y[0,2] - y[0,3] - y[0,4] - y[0,5]
   - y[0,6] - y[0,7] + y[1,0] + y[2,0] + y[3,0] + y[4,0] + y[5,0] + y[6,0]
   + y[7,0] = 0
 flow_cons_inner_nodes[2]: y[0,2] + y[1,2] - y[2,0] - y[2,1] - y[2,3]
   - y[2,4] + y[3,2] + y[4,2] = 0
 flow_cons_inner_nodes[3]: y[0,3] + y[1,3] + y[2,3] - y[3,0] - y[3,1]
   - y[3,2] - y[3,4] - y[3,6] - y[3,7] + y[4,3] + y[6,3] + y[7,3] = 0
 flow_cons_inner_nodes[4]: y[0,4] + y[1,4] + y[2,4] + y[3,4] - y[4,0]
   - y[4,1] - y[4,2] - y[4,3] - y[4,5] - y[4,6] - y[4,7] + y[5,4] + y[6,4]
   + y[7,4] = 0
 flow_cons_inner_nodes[6]: y[0,6] + y[1,6] + y[3,6] + y[4,6] + y[5,6]
   - y[6,0] - y[6,1] - y[6,3] - y[6,4] - y[6,5] - y[6,7] + y[7,6] = 0
 flow_cons_inner_nodes[7]: y[0,7] + y[1,7] + y[3,7] + y[4,7] + y[5,7]
   + y[6,7] - y[7,0] - y[7,1] - y[7,3] - y[7,4] - y[7,5] - y[7,6] = 0
 flow_cons_source: - y[0,1] + y[1,0] + y[1,2] + y[1,3] + y[1,4] + y[1,6]
   + y[1,7] - y[2,1] - y[3,1] - y[4,1] - y[6,1] - y[7,1] = 1
 flow_cons_target: y[0,5] + y[4,5] - y[5,0] - y[5,4] - y[5,6] - y[5,7]
   + y[6,5] + y[7,5] = 1
 primal_lower: - 3 y[0,1] - 0.2 y[0,2] - 1.52 y[0,3] - 2.86 y[0,4]
   - 1.26 y[0,5] - 4.21 y[0,6] - 0.7 y[0,7] - 1.72 y[1,0] - 2.62 y[1,2]
   - 2.16 y[1,3] - 0.77 y[1,4] - 0.97 y[1,6] - 2.87 y[1,7] - 1.11 y[2,0]
   - 1.82 y[2,1] - 0.21 y[2,3] - 1.43 y[2,4] - 1.3 y[3,0] - 1.98 y[3,1]
   - 0.27 y[3,2] - 3.35 y[3,4] - 3.23 y[3,6] - 2.5 y[3,7] - 3.17 y[4,0]
   - 2.58 y[4,1] - 2.83 y[4,2] - 3.53 y[4,3] - 3.86 y[4,5] - 1.55 y[4,6]
   - 1.37 y[4,7] - 2.68 y[5,0] - 1.65 y[5,4] - 3.83 y[5,6] - 3.16 y[5,7]
   - 1.88 y[6,0] - 3.89 y[6,1] - 0.08 y[6,3] - 2.03 y[6,4] - 0.75 y[6,5]
   - 3.74 y[6,7] - 0.55 y[7,0] - 3.29 y[7,1] - 3.76 y[7,3] - 0.77 y[7,4]
   - 1.2 y[7,5] - 4.09 y[7,6] + 6 u[0,1] + 63 u[0,2] + 43 u[0,3]
   + 43 u[0,4] + 45 u[0,5] + 77 u[0,6] + 26 u[0,7] + 13 u[1,0] + 27 u[1,2]
   + 46 u[1,3] + 96 u[1,4] + 10 u[1,6] + 16 u[1,7] + 62 u[2,0] + 98 u[2,1]
   + 76 u[2,3] + 56 u[2,4] + 39 u[3,0] + 61 u[3,1] + 83 u[3,2] + 58 u[3,4]
   + 4 u[3,6] + 54 u[3,7] + 84 u[4,0] + 27 u[4,1] + 8 u[4,2] + 43 u[4,3]
   + 51 u[4,5] + 39 u[4,6] + 88 u[4,7] + 67 u[5,0] + 73 u[5,4] + 52 u[5,6]
   + 31 u[5,7] + 63 u[6,0] + 47 u[6,1] + 52 u[6,3] + 19 u[6,4] + 93 u[6,5]
   + 2 u[6,7] + 44 u[7,0] + 78 u[7,1] + 50 u[7,3] + 56 u[7,4] + 63 u[7,5]
   + 21 u[7,6] <= 204
 mccormick1[0,1]: - u[0,1] + r[0,1] <= 0
 mccormick1[0,2]: - u[0,2] + r[0,2] <= 0
 mccormick1[0,3]: - u[0,3] + r[0,3] <= 0
 mccormick1[0,4]: - u[0,4] + r[0,4] <= 0
 mccormick1[0,5]: - u[0,5] + r[0,5] <= 0
 mccormick1[0,6]: - u[0,6] + r[0,6] <= 0
 mccormick1[0,7]: - u[0,7] + r[0,7] <= 0
 mccormick1[1,0]: - u[1,0] + r[1,0] <= 0
 mccormick1[1,2]: - u[1,2] + r[1,2] <= 0
 mccormick1[1,3]: - u[1,3] + r[1,3] <= 0
 mccormick1[1,4]: - u[1,4] + r[1,4] <= 0
 mccormick1[1,6]: - u[1,6] + r[1,6] <= 0
 mccormick1[1,7]: - u[1,7] + r[1,7] <= 0
 mccormick1[2,0]: - u[2,0] + r[2,0] <= 0
 mccormick1[2,1]: - u[2,1] + r[2,1] <= 0
 mccormick1[2,3]: - u[2,3] + r[2,3] <= 0
 mccormick1[2,4]: - u[2,4] + r[2,4] <= 0
 mccormick1[3,0]: - u[3,0] + r[3,0] <= 0
 mccormick1[3,1]: - u[3,1] + r[3,1] <= 0
 mccormick1[3,2]: - u[3,2] + r[3,2] <= 0
 mccormick1[3,4]: - u[3,4] + r[3,4] <= 0
 mccormick1[3,6]: - u[3,6] + r[3,6] <= 0
 mccormick1[3,7]: - u[3,7] + r[3,7] <= 0
 mccormick1[4,0]: - u[4,0] + r[4,0] <= 0
 mccormick1[4,1]: - u[4,1] + r[4,1] <= 0
 mccormick1[4,2]: - u[4,2] + r[4,2] <= 0
 mccormick1[4,3]: - u[4,3] + r[4,3] <= 0
 mccormick1[4,5]: - u[4,5] + r[4,5] <= 0
 mccormick1[4,6]: - u[4,6] + r[4,6] <= 0
 mccormick1[4,7]: - u[4,7] + r[4,7] <= 0
 mccormick1[5,0]: - u[5,0] + r[5,0] <= 0
 mccormick1[5,4]: - u[5,4] + r[5,4] <= 0
 mccormick1[5,6]: - u[5,6] + r[5,6] <= 0
 mccormick1[5,7]: - u[5,7] + r[5,7] <= 0
 mccormick1[6,0]: - u[6,0] + r[6,0] <= 0
 mccormick1[6,1]: - u[6,1] + r[6,1] <= 0
 mccormick1[6,3]: - u[6,3] + r[6,3] <= 0
 mccormick1[6,4]: - u[6,4] + r[6,4] <= 0
 mccormick1[6,5]: - u[6,5] + r[6,5] <= 0
 mccormick1[6,7]: - u[6,7] + r[6,7] <= 0
 mccormick1[7,0]: - u[7,0] + r[7,0] <= 0
 mccormick1[7,1]: - u[7,1] + r[7,1] <= 0
 mccormick1[7,3]: - u[7,3] + r[7,3] <= 0
 mccormick1[7,4]: - u[7,4] + r[7,4] <= 0
 mccormick1[7,5]: - u[7,5] + r[7,5] <= 0
 mccormick1[7,6]: - u[7,6] + r[7,6] <= 0
 mccormick2[0,1]: - y[0,1] + r[0,1] <= 0
 mccormick2[0,2]: - y[0,2] + r[0,2] <= 0
 mccormick2[0,3]: - y[0,3] + r[0,3] <= 0
 mccormick2[0,4]: - y[0,4] + r[0,4] <= 0
 mccormick2[0,5]: - y[0,5] + r[0,5] <= 0
 mccormick2[0,6]: - y[0,6] + r[0,6] <= 0
 mccormick2[0,7]: - y[0,7] + r[0,7] <= 0
 mccormick2[1,0]: - y[1,0] + r[1,0] <= 0
 mccormick2[1,2]: - y[1,2] + r[1,2] <= 0
 mccormick2[1,3]: - y[1,3] + r[1,3] <= 0
 mccormick2[1,4]: - y[1,4] + r[1,4] <= 0
 mccormick2[1,6]: - y[1,6] + r[1,6] <= 0
 mccormick2[1,7]: - y[1,7] + r[1,7] <= 0
 mccormick2[2,0]: - y[2,0] + r[2,0] <= 0
 mccormick2[2,1]: - y[2,1] + r[2,1] <= 0
 mccormick2[2,3]: - y[2,3] + r[2,3] <= 0
 mccormick2[2,4]: - y[2,4] + r[2,4] <= 0
 mccormick2[3,0]: - y[3,0] + r[3,0] <= 0
 mccormick2[3,1]: - y[3,1] + r[3,1] <= 0
 mccormick2[3,2]: - y[3,2] + r[3,2] <= 0
 mccormick2[3,4]: - y[3,4] + r[3,4] <= 0
 mccormick2[3,6]: - y[3,6] + r[3,6] <= 0
 mccormick2[3,7]: - y[3,7] + r[3,7] <= 0
 mccormick2[4,0]: - y[4,0] + r[4,0] <= 0
 mccormick2[4,1]: - y[4,1] + r[4,1] <= 0
 mccormick2[4,2]: - y[4,2] + r[4,2] <= 0
 mccormick2[4,3]: - y[4,3] + r[4,3] <= 0
 mccormick2[4,5]: - y[4,5] + r[4,5] <= 0
 mccormick2[4,6]: - y[4,6] + r[4,6] <= 0
 mccormick2[4,7]: - y[4,7] + r[4,7] <= 0
 mccormick2[5,0]: - y[5,0] + r[5,0] <= 0
 mccormick2[5,4]: - y[5,4] + r[5,4] <= 0
 mccormick2[5,6]: - y[5,6] + r[5,6] <= 0
 mccormick2[5,7]: - y[5,7] + r[5,7] <= 0
 mccormick2[6,0]: - y[6,0] + r[6,0] <= 0
 mccormick2[6,1]: - y[6,1] + r[6,1] <= 0
 mccormick2[6,3]: - y[6,3] + r[6,3] <= 0
 mccormick2[6,4]: - y[6,4] + r[6,4] <= 0
 mccormick2[6,5]: - y[6,5] + r[6,5] <= 0
 mccormick2[6,7]: - y[6,7] + r[6,7] <= 0
 mccormick2[7,0]: - y[7,0] + r[7,0] <= 0
 mccormick2[7,1]: - y[7,1] + r[7,1] <= 0
 mccormick2[7,3]: - y[7,3] + r[7,3] <= 0
 mccormick2[7,4]: - y[7,4] + r[7,4] <= 0
 mccormick2[7,5]: - y[7,5] + r[7,5] <= 0
 mccormick2[7,6]: - y[7,6] + r[7,6] <= 0
 mccormick3[0,1]: - y[0,1] - u[0,1] + r[0,1] >= -1
 mccormick3[0,2]: - y[0,2] - u[0,2] + r[0,2] >= -1
 mccormick3[0,3]: - y[0,3] - u[0,3] + r[0,3] >= -1
 mccormick3[0,4]: - y[0,4] - u[0,4] + r[0,4] >= -1
 mccormick3[0,5]: - y[0,5] - u[0,5] + r[0,5] >= -1
 mccormick3[0,6]: - y[0,6] - u[0,6] + r[0,6] >= -1
 mccormick3[0,7]: - y[0,7] - u[0,7] + r[0,7] >= -1
 mccormick3[1,0]: - y[1,0] - u[1,0] + r[1,0] >= -1
 mccormick3[1,2]: - y[1,2] - u[1,2] + r[1,2] >= -1
 mccormick3[1,3]: - y[1,3] - u[1,3] + r[1,3] >= -1
 mccormick3[1,4]: - y[1,4] - u[1,4] + r[1,4] >= -1
 mccormick3[1,6]: - y[1,6] - u[1,6] + r[1,6] >= -1
 mccormick3[1,7]: - y[1,7] - u[1,7] + r[1,7] >= -1
 mccormick3[2,0]: - y[2,0] - u[2,0] + r[2,0] >= -1
 mccormick3[2,1]: - y[2,1] - u[2,1] + r[2,1] >= -1
 mccormick3[2,3]: - y[2,3] - u[2,3] + r[2,3] >= -1
 mccormick3[2,4]: - y[2,4] - u[2,4] + r[2,4] >= -1
 mccormick3[3,0]: - y[3,0] - u[3,0] + r[3,0] >= -1
 mccormick3[3,1]: - y[3,1] - u[3,1] + r[3,1] >= -1
 mccormick3[3,2]: - y[3,2] - u[3,2] + r[3,2] >= -1
 mccormick3[3,4]: - y[3,4] - u[3,4] + r[3,4] >= -1
 mccormick3[3,6]: - y[3,6] - u[3,6] + r[3,6] >= -1
 mccormick3[3,7]: - y[3,7] - u[3,7] + r[3,7] >= -1
 mccormick3[4,0]: - y[4,0] - u[4,0] + r[4,0] >= -1
 mccormick3[4,1]: - y[4,1] - u[4,1] + r[4,1] >= -1
 mccormick3[4,2]: - y[4,2] - u[4,2] + r[4,2] >= -1
 mccormick3[4,3]: - y[4,3] - u[4,3] + r[4,3] >= -1
 mccormick3[4,5]: - y[4,5] - u[4,5] + r[4,5] >= -1
 mccormick3[4,6]: - y[4,6] - u[4,6] + r[4,6] >= -1
 mccormick3[4,7]: - y[4,7] - u[4,7] + r[4,7] >= -1
 mccormick3[5,0]: - y[5,0] - u[5,0] + r[5,0] >= -1
 mccormick3[5,4]: - y[5,4] - u[5,4] + r[5,4] >= -1
 mccormick3[5,6]: - y[5,6] - u[5,6] + r[5,6] >= -1
 mccormick3[5,7]: - y[5,7] - u[5,7] + r[5,7] >= -1
 mccormick3[6,0]: - y[6,0] - u[6,0] + r[6,0] >= -1
 mccormick3[6,1]: - y[6,1] - u[6,1] + r[6,1] >= -1
 mccormick3[6,3]: - y[6,3] - u[6,3] + r[6,3] >= -1
 mccormick3[6,4]: - y[6,4] - u[6,4] + r[6,4] >= -1
 mccormick3[6,5]: - y[6,5] - u[6,5] + r[6,5] >= -1
 mccormick3[6,7]: - y[6,7] - u[6,7] + r[6,7] >= -1
 mccormick3[7,0]: - y[7,0] - u[7,0] + r[7,0] >= -1
 mccormick3[7,1]: - y[7,1] - u[7,1] + r[7,1] >= -1
 mccormick3[7,3]: - y[7,3] - u[7,3] + r[7,3] >= -1
 mccormick3[7,4]: - y[7,4] - u[7,4] + r[7,4] >= -1
 mccormick3[7,5]: - y[7,5] - u[7,5] + r[7,5] >= -1
 mccormick3[7,6]: - y[7,6] - u[7,6] + r[7,6] >= -1
Bounds
Binaries
 y[0,1] y[0,2] y[0,3] y[0,4] y[0,5] y[0,6] y[0,7] y[1,0] y[1,2] y[1,3]
 y[1,4] y[1,6] y[1,7] y[2,0] y[2,1] y[2,3] y[2,4] y[3,0] y[3,1] y[3,2]
 y[3,4] y[3,6] y[3,7] y[4,0] y[4,1] y[4,2] y[4,3] y[4,5] y[4,6] y[4,7]
 y[5,0] y[5,4] y[5,6] y[5,7] y[6,0] y[6,1] y[6,3] y[6,4] y[6,5] y[6,7]
 y[7,0] y[7,1] y[7,3] y[7,4] y[7,5] y[7,6] u[0,1] u[0,2] u[0,3] u[0,4]
 u[0,5] u[0,6] u[0,7] u[1,0] u[1,2] u[1,3] u[1,4] u[1,6] u[1,7] u[2,0]
 u[2,1] u[2,3] u[2,4] u[3,0] u[3,1] u[3,2] u[3,4] u[3,6] u[3,7] u[4,0]
 u[4,1] u[4,2] u[4,3] u[4,5] u[4,6] u[4,7] u[5,0] u[5,4] u[5,6] u[5,7]
 u[6,0] u[6,1] u[6,3] u[6,4] u[6,5] u[6,7] u[7,0] u[7,1] u[7,3] u[7,4]
 u[7,5] u[7,6] r[0,1] r[0,2] r[0,3] r[0,4] r[0,5] r[0,6] r[0,7] r[1,0]
 r[1,2] r[1,3] r[1,4] r[1,6] r[1,7] r[2,0] r[2,1] r[2,3] r[2,4] r[3,0]
 r[3,1] r[3,2] r[3,4] r[3,6] r[3,7] r[4,0] r[4,1] r[4,2] r[4,3] r[4,5]
 r[4,6] r[4,7] r[5,0] r[5,4] r[5,6] r[5,7] r[6,0] r[6,1] r[6,3] r[6,4]
 r[6,5] r[6,7] r[7,0] r[7,1] r[7,3] r[7,4] r[7,5] r[7,6]
End
